Code 634
Dimension, Median
   128       16     
 Facility, Client, Transportation Cost
     1        1           1
     1        2           1
     1        3           2
     1        5           3
     1        9           4
     1       17           2
     1       33           0
     1       65           0
     2        1           1
     2        2           4
     2        4           0
     2        6           3
     2       10           0
     2       18           3
     2       34           4
     2       66           4
     3        1           1
     3        3           1
     3        4           2
     3        7           3
     3       11           3
     3       19           4
     3       35           1
     3       67           1
     4        2           0
     4        3           1
     4        4           4
     4        8           4
     4       12           0
     4       20           0
     4       36           1
     4       68           0
     5        1           3
     5        5           2
     5        6           1
     5        7           1
     5       13           2
     5       21           2
     5       37           3
     5       69           0
     6        2           4
     6        5           4
     6        6           0
     6        8           2
     6       14           1
     6       22           0
     6       38           4
     6       70           0
     7        3           4
     7        5           2
     7        7           2
     7        8           4
     7       15           0
     7       23           2
     7       39           1
     7       71           2
     8        4           0
     8        6           2
     8        7           0
     8        8           4
     8       16           3
     8       24           2
     8       40           0
     8       72           3
     9        1           1
     9        9           1
     9       10           2
     9       11           3
     9       13           3
     9       25           3
     9       41           2
     9       73           2
    10        2           3
    10        9           0
    10       10           2
    10       12           4
    10       14           2
    10       26           3
    10       42           4
    10       74           0
    11        3           1
    11        9           0
    11       11           1
    11       12           2
    11       15           3
    11       27           1
    11       43           2
    11       75           3
    12        4           1
    12       10           0
    12       11           4
    12       12           2
    12       16           0
    12       28           2
    12       44           3
    12       76           4
    13        5           3
    13        9           3
    13       13           2
    13       14           3
    13       15           4
    13       29           4
    13       45           4
    13       77           3
    14        6           3
    14       10           2
    14       13           4
    14       14           0
    14       16           0
    14       30           2
    14       46           0
    14       78           2
    15        7           1
    15       11           3
    15       13           0
    15       15           4
    15       16           4
    15       31           3
    15       47           4
    15       79           3
    16        8           4
    16       12           1
    16       14           3
    16       15           3
    16       16           0
    16       32           2
    16       48           4
    16       80           0
    17        1           0
    17       17           2
    17       18           2
    17       19           4
    17       21           2
    17       25           3
    17       49           2
    17       81           4
    18        2           0
    18       17           2
    18       18           2
    18       20           4
    18       22           2
    18       26           0
    18       50           2
    18       82           3
    19        3           3
    19       17           4
    19       19           3
    19       20           0
    19       23           4
    19       27           4
    19       51           3
    19       83           2
    20        4           0
    20       18           1
    20       19           3
    20       20           3
    20       24           1
    20       28           3
    20       52           0
    20       84           4
    21        5           2
    21       17           2
    21       21           0
    21       22           4
    21       23           0
    21       29           3
    21       53           3
    21       85           1
    22        6           0
    22       18           4
    22       21           2
    22       22           2
    22       24           0
    22       30           0
    22       54           1
    22       86           3
    23        7           1
    23       19           2
    23       21           2
    23       23           1
    23       24           3
    23       31           0
    23       55           1
    23       87           3
    24        8           2
    24       20           4
    24       22           0
    24       23           3
    24       24           4
    24       32           4
    24       56           4
    24       88           1
    25        9           2
    25       17           4
    25       25           2
    25       26           0
    25       27           0
    25       29           4
    25       57           2
    25       89           4
    26       10           4
    26       18           4
    26       25           1
    26       26           4
    26       28           4
    26       30           4
    26       58           0
    26       90           3
    27       11           3
    27       19           4
    27       25           3
    27       27           4
    27       28           2
    27       31           0
    27       59           4
    27       91           2
    28       12           4
    28       20           2
    28       26           3
    28       27           3
    28       28           1
    28       32           4
    28       60           2
    28       92           3
    29       13           2
    29       21           1
    29       25           1
    29       29           3
    29       30           3
    29       31           0
    29       61           4
    29       93           2
    30       14           3
    30       22           4
    30       26           2
    30       29           2
    30       30           2
    30       32           1
    30       62           3
    30       94           2
    31       15           1
    31       23           4
    31       27           3
    31       29           0
    31       31           1
    31       32           0
    31       63           3
    31       95           3
    32       16           0
    32       24           4
    32       28           4
    32       30           0
    32       31           2
    32       32           3
    32       64           4
    32       96           3
    33        1           3
    33       33           3
    33       34           0
    33       35           1
    33       37           0
    33       41           1
    33       49           4
    33       97           2
    34        2           0
    34       33           2
    34       34           2
    34       36           1
    34       38           4
    34       42           1
    34       50           0
    34       98           2
    35        3           3
    35       33           0
    35       35           3
    35       36           2
    35       39           4
    35       43           4
    35       51           3
    35       99           3
    36        4           1
    36       34           3
    36       35           1
    36       36           4
    36       40           0
    36       44           0
    36       52           3
    36      100           0
    37        5           3
    37       33           2
    37       37           3
    37       38           3
    37       39           2
    37       45           2
    37       53           4
    37      101           2
    38        6           0
    38       34           1
    38       37           1
    38       38           0
    38       40           2
    38       46           2
    38       54           1
    38      102           2
    39        7           3
    39       35           2
    39       37           2
    39       39           3
    39       40           2
    39       47           0
    39       55           2
    39      103           2
    40        8           4
    40       36           2
    40       38           2
    40       39           3
    40       40           3
    40       48           3
    40       56           4
    40      104           2
    41        9           4
    41       33           0
    41       41           3
    41       42           0
    41       43           0
    41       45           2
    41       57           2
    41      105           0
    42       10           1
    42       34           1
    42       41           2
    42       42           4
    42       44           4
    42       46           0
    42       58           4
    42      106           1
    43       11           2
    43       35           3
    43       41           1
    43       43           4
    43       44           0
    43       47           0
    43       59           0
    43      107           4
    44       12           3
    44       36           0
    44       42           3
    44       43           4
    44       44           3
    44       48           1
    44       60           4
    44      108           0
    45       13           3
    45       37           3
    45       41           1
    45       45           0
    45       46           1
    45       47           3
    45       61           3
    45      109           0
    46       14           0
    46       38           3
    46       42           3
    46       45           4
    46       46           2
    46       48           1
    46       62           4
    46      110           0
    47       15           1
    47       39           2
    47       43           0
    47       45           4
    47       47           0
    47       48           4
    47       63           2
    47      111           2
    48       16           0
    48       40           0
    48       44           0
    48       46           4
    48       47           4
    48       48           1
    48       64           0
    48      112           3
    49       17           4
    49       33           2
    49       49           0
    49       50           4
    49       51           3
    49       53           1
    49       57           0
    49      113           3
    50       18           3
    50       34           2
    50       49           4
    50       50           1
    50       52           0
    50       54           0
    50       58           0
    50      114           4
    51       19           3
    51       35           2
    51       49           1
    51       51           2
    51       52           3
    51       55           2
    51       59           2
    51      115           0
    52       20           1
    52       36           1
    52       50           0
    52       51           0
    52       52           1
    52       56           0
    52       60           3
    52      116           3
    53       21           4
    53       37           1
    53       49           0
    53       53           4
    53       54           3
    53       55           2
    53       61           1
    53      117           2
    54       22           4
    54       38           2
    54       50           1
    54       53           0
    54       54           4
    54       56           3
    54       62           0
    54      118           0
    55       23           0
    55       39           3
    55       51           4
    55       53           0
    55       55           2
    55       56           2
    55       63           3
    55      119           1
    56       24           0
    56       40           2
    56       52           2
    56       54           2
    56       55           0
    56       56           3
    56       64           2
    56      120           2
    57       25           1
    57       41           1
    57       49           3
    57       57           3
    57       58           0
    57       59           3
    57       61           0
    57      121           1
    58       26           0
    58       42           1
    58       50           3
    58       57           4
    58       58           3
    58       60           0
    58       62           1
    58      122           0
    59       27           3
    59       43           4
    59       51           4
    59       57           2
    59       59           0
    59       60           0
    59       63           1
    59      123           2
    60       28           2
    60       44           0
    60       52           2
    60       58           0
    60       59           0
    60       60           4
    60       64           2
    60      124           3
    61       29           3
    61       45           2
    61       53           4
    61       57           4
    61       61           4
    61       62           4
    61       63           0
    61      125           4
    62       30           3
    62       46           2
    62       54           1
    62       58           3
    62       61           1
    62       62           0
    62       64           4
    62      126           3
    63       31           2
    63       47           2
    63       55           4
    63       59           3
    63       61           1
    63       63           0
    63       64           4
    63      127           3
    64       32           2
    64       48           1
    64       56           0
    64       60           0
    64       62           3
    64       63           0
    64       64           1
    64      128           3
    65        1           1
    65       65           4
    65       66           4
    65       67           4
    65       69           4
    65       73           0
    65       81           0
    65       97           1
    66        2           2
    66       65           1
    66       66           0
    66       68           4
    66       70           2
    66       74           4
    66       82           0
    66       98           1
    67        3           3
    67       65           4
    67       67           1
    67       68           2
    67       71           4
    67       75           3
    67       83           2
    67       99           2
    68        4           0
    68       66           2
    68       67           3
    68       68           0
    68       72           1
    68       76           0
    68       84           2
    68      100           3
    69        5           4
    69       65           3
    69       69           4
    69       70           2
    69       71           0
    69       77           3
    69       85           2
    69      101           3
    70        6           1
    70       66           4
    70       69           4
    70       70           2
    70       72           1
    70       78           3
    70       86           3
    70      102           0
    71        7           3
    71       67           3
    71       69           4
    71       71           3
    71       72           0
    71       79           0
    71       87           4
    71      103           4
    72        8           1
    72       68           3
    72       70           2
    72       71           4
    72       72           1
    72       80           1
    72       88           0
    72      104           1
    73        9           0
    73       65           4
    73       73           2
    73       74           1
    73       75           0
    73       77           4
    73       89           1
    73      105           2
    74       10           0
    74       66           3
    74       73           1
    74       74           1
    74       76           0
    74       78           3
    74       90           2
    74      106           3
    75       11           2
    75       67           3
    75       73           0
    75       75           3
    75       76           2
    75       79           1
    75       91           4
    75      107           0
    76       12           2
    76       68           2
    76       74           0
    76       75           0
    76       76           2
    76       80           4
    76       92           3
    76      108           3
    77       13           1
    77       69           3
    77       73           1
    77       77           0
    77       78           4
    77       79           0
    77       93           4
    77      109           4
    78       14           1
    78       70           4
    78       74           2
    78       77           0
    78       78           3
    78       80           1
    78       94           0
    78      110           3
    79       15           4
    79       71           4
    79       75           0
    79       77           1
    79       79           3
    79       80           1
    79       95           0
    79      111           1
    80       16           2
    80       72           0
    80       76           3
    80       78           1
    80       79           1
    80       80           3
    80       96           4
    80      112           0
    81       17           2
    81       65           0
    81       81           2
    81       82           0
    81       83           4
    81       85           0
    81       89           1
    81      113           3
    82       18           2
    82       66           4
    82       81           2
    82       82           3
    82       84           3
    82       86           1
    82       90           2
    82      114           0
    83       19           4
    83       67           0
    83       81           1
    83       83           1
    83       84           0
    83       87           1
    83       91           4
    83      115           4
    84       20           2
    84       68           4
    84       82           1
    84       83           3
    84       84           4
    84       88           4
    84       92           3
    84      116           4
    85       21           1
    85       69           2
    85       81           0
    85       85           3
    85       86           4
    85       87           2
    85       93           3
    85      117           2
    86       22           0
    86       70           0
    86       82           1
    86       85           3
    86       86           4
    86       88           4
    86       94           2
    86      118           2
    87       23           3
    87       71           0
    87       83           4
    87       85           2
    87       87           0
    87       88           3
    87       95           2
    87      119           1
    88       24           4
    88       72           0
    88       84           4
    88       86           4
    88       87           0
    88       88           1
    88       96           2
    88      120           2
    89       25           0
    89       73           4
    89       81           2
    89       89           4
    89       90           2
    89       91           3
    89       93           0
    89      121           0
    90       26           1
    90       74           3
    90       82           0
    90       89           1
    90       90           2
    90       92           0
    90       94           2
    90      122           1
    91       27           0
    91       75           0
    91       83           3
    91       89           2
    91       91           0
    91       92           1
    91       95           0
    91      123           1
    92       28           0
    92       76           1
    92       84           3
    92       90           3
    92       91           0
    92       92           2
    92       96           0
    92      124           4
    93       29           0
    93       77           2
    93       85           3
    93       89           0
    93       93           1
    93       94           4
    93       95           4
    93      125           2
    94       30           4
    94       78           1
    94       86           4
    94       90           1
    94       93           0
    94       94           3
    94       96           0
    94      126           2
    95       31           3
    95       79           4
    95       87           0
    95       91           4
    95       93           0
    95       95           1
    95       96           1
    95      127           3
    96       32           3
    96       80           3
    96       88           1
    96       92           2
    96       94           3
    96       95           3
    96       96           2
    96      128           1
    97       33           0
    97       65           3
    97       97           2
    97       98           4
    97       99           4
    97      101           4
    97      105           4
    97      113           4
    98       34           2
    98       66           0
    98       97           2
    98       98           3
    98      100           1
    98      102           0
    98      106           1
    98      114           3
    99       35           2
    99       67           2
    99       97           4
    99       99           1
    99      100           2
    99      103           0
    99      107           0
    99      115           2
   100       36           3
   100       68           3
   100       98           3
   100       99           4
   100      100           4
   100      104           3
   100      108           0
   100      116           1
   101       37           3
   101       69           1
   101       97           3
   101      101           2
   101      102           2
   101      103           2
   101      109           2
   101      117           3
   102       38           1
   102       70           3
   102       98           0
   102      101           4
   102      102           1
   102      104           0
   102      110           0
   102      118           0
   103       39           1
   103       71           4
   103       99           3
   103      101           2
   103      103           2
   103      104           0
   103      111           0
   103      119           3
   104       40           1
   104       72           3
   104      100           2
   104      102           0
   104      103           3
   104      104           1
   104      112           1
   104      120           1
   105       41           4
   105       73           3
   105       97           3
   105      105           1
   105      106           3
   105      107           0
   105      109           4
   105      121           4
   106       42           2
   106       74           0
   106       98           0
   106      105           2
   106      106           1
   106      108           0
   106      110           3
   106      122           2
   107       43           3
   107       75           4
   107       99           1
   107      105           1
   107      107           1
   107      108           0
   107      111           1
   107      123           3
   108       44           3
   108       76           2
   108      100           1
   108      106           2
   108      107           3
   108      108           3
   108      112           2
   108      124           0
   109       45           3
   109       77           1
   109      101           1
   109      105           2
   109      109           3
   109      110           1
   109      111           4
   109      125           3
   110       46           1
   110       78           1
   110      102           4
   110      106           4
   110      109           0
   110      110           3
   110      112           0
   110      126           3
   111       47           1
   111       79           3
   111      103           4
   111      107           1
   111      109           0
   111      111           1
   111      112           0
   111      127           3
   112       48           2
   112       80           4
   112      104           2
   112      108           0
   112      110           4
   112      111           3
   112      112           4
   112      128           3
   113       49           4
   113       81           1
   113       97           3
   113      113           0
   113      114           0
   113      115           2
   113      117           3
   113      121           0
   114       50           2
   114       82           1
   114       98           3
   114      113           3
   114      114           2
   114      116           4
   114      118           3
   114      122           3
   115       51           2
   115       83           1
   115       99           0
   115      113           4
   115      115           2
   115      116           1
   115      119           2
   115      123           1
   116       52           0
   116       84           4
   116      100           4
   116      114           1
   116      115           3
   116      116           3
   116      120           0
   116      124           3
   117       53           3
   117       85           0
   117      101           1
   117      113           4
   117      117           0
   117      118           4
   117      119           4
   117      125           2
   118       54           4
   118       86           4
   118      102           3
   118      114           2
   118      117           4
   118      118           3
   118      120           4
   118      126           0
   119       55           2
   119       87           2
   119      103           4
   119      115           3
   119      117           0
   119      119           1
   119      120           2
   119      127           1
   120       56           4
   120       88           3
   120      104           2
   120      116           1
   120      118           0
   120      119           4
   120      120           0
   120      128           3
   121       57           0
   121       89           2
   121      105           1
   121      113           4
   121      121           3
   121      122           4
   121      123           3
   121      125           3
   122       58           2
   122       90           1
   122      106           4
   122      114           0
   122      121           1
   122      122           2
   122      124           3
   122      126           3
   123       59           1
   123       91           3
   123      107           4
   123      115           2
   123      121           1
   123      123           2
   123      124           3
   123      127           0
   124       60           3
   124       92           4
   124      108           2
   124      116           3
   124      122           2
   124      123           3
   124      124           1
   124      128           2
   125       61           4
   125       93           1
   125      109           1
   125      117           2
   125      121           1
   125      125           3
   125      126           4
   125      127           3
   126       62           2
   126       94           1
   126      110           0
   126      118           4
   126      122           0
   126      125           4
   126      126           2
   126      128           2
   127       63           1
   127       95           3
   127      111           4
   127      119           0
   127      123           2
   127      125           0
   127      127           2
   127      128           0
   128       64           0
   128       96           4
   128      112           2
   128      120           1
   128      124           4
   128      126           2
   128      127           1
   128      128           4
